InstanciasPAB/instancia.demur.10.20.3A.txt
N 10
M 20
K Alumina Bauxita Manganes Ferro ;
L 3
v
1 3
2 4
3 2
d
1 1
2 1
3 1
4 1
5 1
6 5
7 5
8 5
9 5
10 5
a
1 1
2 1
3 3
4 5
5 6
6 8
7 8
8 10
9 10
10 11
e
Bauxita 22
Alumina 24
Manganes 19
Ferro 20
ck
Bauxita 3
Alumina 3
Manganes 2
Ferro 2
q Bauxita Alumina Manganes Ferro
1	7	0	0	0
2	10	0	0	0
3	5	0	0	0
4	0	15	0	0
5	6	0	0	0
6	0	22	0	0
7	0	0	6	0
8	0	0	0	20
9	0	0	15	0
10	10	0	0	0
